c NeuroCodeBench 2.0 CNF formula with verdict Unsat
p cnf 22 103
1 -19 9 -8 -2 -4 -17 21 0
-1 -21 -7 -22 2 -3 -19 20 0
1 19 12 -5 18 0
1 -19 -9 -20 18 -17 10 4 0
-1 21 19 -15 2 9 14 0
-1 -21 -7 22 -16 -19 11 -5 -10 4 0
-1 -21 -7 22 -16 -19 11 -5 10 -18 0
-1 -21 -7 22 -16 19 -3 15 0
1 -19 -9 -20 18 17 -16 -14 0
-1 -21 7 4 -11 17 0
-1 -21 -7 22 16 -17 0
-1 -21 7 -4 19 -12 0
-1 -21 -7 22 16 17 3 10 5 15 -19 0
1 -19 9 8 0
1 -19 -9 -20 18 -17 -10 5 0
-1 -21 -7 22 16 17 3 10 5 -15 19 0
1 -19 9 -8 -2 4 -10 0
1 -19 -9 -20 18 -17 -10 -5 12 8 0
-1 -21 -7 -22 2 3 14 0
-1 21 19 15 22 0
1 -19 -9 -20 -18 22 12 2 0
1 19 12 5 2 4 0
-1 -21 -7 22 -16 -19 -11 9 -10 -3 0
-1 -21 -7 22 -16 19 -3 -15 0
-1 -21 -7 22 16 17 3 10 -5 0
-1 -21 -7 22 -16 -19 -11 -9 15 0
-1 -21 -7 22 -16 19 3 -11 0
1 -19 9 -8 -2 4 10 0
1 -19 -9 -20 18 -17 -10 -5 12 -8 -11 0
-1 -21 -7 22 -16 -19 -11 9 -10 3 5 0
-1 21 19 -15 2 9 -14 0
-1 -21 -7 22 16 17 3 -10 -6 -11 0
-1 21 19 15 -22 0
1 -19 -9 20 -18 14 -3 0
-1 -21 -7 22 -16 -19 -11 9 10 2 0
-1 21 -19 0
-1 -21 7 4 11 -17 0
-1 -21 -7 22 -16 -19 11 -5 10 18 0
1 -19 -9 -20 -18 -22 3 0
1 -19 9 -8 2 0
-1 21 19 -15 -2 0
1 19 -12 -4 0
1 -19 9 -8 -2 -4 -17 -21 -11 0
1 -19 -9 20 18 0
-1 -21 -7 22 16 17 -3 0
-1 -21 7 4 -11 -17 5 0
-1 -21 -7 22 -16 -19 -11 -9 -15 14 0
1 -19 -9 20 -18 -14 -21 6 -11 0
-1 -21 -7 22 -16 -19 11 -5 -10 -4 0
1 -19 -9 -20 18 17 -16 14 -21 -11 0
-1 -21 7 4 11 17 -18 0
-1 -21 -7 22 -16 -19 -11 -9 -15 -14 0
-1 -21 -7 -22 -2 -11 19 0
-1 21 19 -15 2 -9 0
-1 -21 -7 22 16 17 3 -10 6 4 0
1 -19 -9 -20 18 -17 -10 -5 12 -8 11 0
-1 -21 -7 -22 2 -3 19 0
-1 -21 -7 -22 2 -3 -19 -20 0
-1 -21 -7 22 16 17 3 10 5 15 19 0
1 -19 -9 -20 18 -17 -10 -5 -12 -15 -16 0
1 -19 -9 20 -18 -14 21 0
-1 -21 -7 22 -16 -19 11 5 6 0
-1 -21 -7 -22 2 3 -14 0
-1 -21 -7 22 -16 19 3 11 5 0
1 -19 -9 -20 18 -17 -10 -5 -12 15 0
1 19 12 5 -2 15 0
1 -19 -9 -20 -18 22 12 -2 11 0
-1 -21 -7 -22 -2 11 8 0
-1 -21 7 -4 19 12 0
-1 -21 -7 -22 -2 -11 -19 -9 0
-1 -21 -7 22 -16 -19 -11 9 -10 3 -5 0
-1 -21 7 -4 -19 0
1 -19 -9 -20 18 -17 -10 -5 -12 -15 16 0
1 -19 9 -8 -2 -4 17 0
-1 -21 -7 -22 -2 -11 -19 9 0
1 -19 -9 -20 -18 22 -12 -3 -16 0
1 -19 -9 -20 18 17 -16 14 21 0
1 -19 -9 -20 -18 22 -12 3 0
1 -19 -9 -20 18 -17 10 -4 0
-1 -21 -7 -22 -2 11 -8 0
1 19 12 -5 -18 0
1 19 -12 4 0
1 19 12 5 2 -4 7 0
1 -19 -9 20 -18 -14 -21 -6 0
1 -19 -9 -20 -18 22 12 -2 -11 16 0
-1 -21 7 4 -11 -17 -5 0
-1 -21 -7 22 -16 -19 11 5 -6 0
-1 -21 7 4 11 17 18 0
-1 -21 -7 22 16 17 3 -10 -6 11 0
1 -19 -9 -20 -18 22 -12 -3 16 0
-1 -21 -7 22 16 17 3 10 5 -15 -19 0
1 19 12 5 -2 -15 0
1 -19 9 -8 -2 -4 -17 -21 11 0
1 -19 -9 20 -18 14 3 0
-1 -21 -7 22 -16 19 3 11 -5 0
1 -19 -9 -20 -18 -22 -3 0
1 19 12 5 2 -4 -7 0
1 -19 -9 -20 -18 22 12 -2 -11 -16 0
-1 -21 -7 22 16 17 3 -10 6 -4 0
1 -19 -9 20 -18 -14 -21 6 11 0
-1 -21 -7 22 -16 -19 -11 9 10 -2 0
1 -19 -9 -20 18 17 -16 14 -21 11 0
1 -19 -9 -20 18 17 16 0
